# Solution for model GasLib-40
# Objective value = 1.0540682229932195e+01
loadshed[innode_1] 0
loadshed[innode_2] 0
loadshed[innode_3] 0
loadshed[innode_4] 0
loadshed[innode_5] 0
loadshed[innode_6] 0
loadshed[innode_7] 0
loadshed[innode_8] 0
loadshed[source_1] -3.0789694770023712e-01
loadshed[source_2] 8.4434427333584083e-02
loadshed[source_3] 0.290137602339395
loadshed[sink_1] 0
loadshed[sink_2] 0
loadshed[sink_3] 0
loadshed[sink_4] 0
loadshed[sink_5] 0
loadshed[sink_6] 0
loadshed[sink_7] 0
loadshed[sink_8] 0
loadshed[sink_9] 0
loadshed[sink_10] 0
loadshed[sink_11] 0
loadshed[sink_12] 6.4452579240349717e-01
loadshed[sink_13] 0
loadshed[sink_14] 0
loadshed[sink_15] 0
loadshed[sink_16] 0
loadshed[sink_17] 0
loadshed[sink_18] 0
loadshed[sink_19] 0
loadshed[sink_20] 0
loadshed[sink_21] 0
loadshed[sink_22] 0
loadshed[sink_23] 0
loadshed[sink_24] 0
loadshed[sink_25] 0
loadshed[sink_26] 0
loadshed[sink_27] 0
loadshed[sink_28] 0
loadshed[sink_29] 0
flow[source_1,sink_3] 2.0676579176663819e+02
flow[innode_1,sink_16] 1.6354166666666970e+01
flow[innode_6,sink_13] 2.2568230365027540e+00
flow[sink_13,sink_14] -1.4097343630163914e+01
flow[sink_14,sink_10] -3.0451510296830747e+01
flow[sink_25,sink_26] 1.4980605515928744e+02
flow[sink_26,sink_9] 1.3345188849262067e+02
flow[sink_9,sink_18] 117.097721825954
flow[sink_26,sink_4] 0
flow[sink_4,sink_20] -3.3689854028517935e+01
flow[sink_18,sink_6] 1.0074355515928733e+02
flow[sink_25,innode_8] -1.7405745843330180e+02
flow[sink_6,sink_7] 51.6810551592871
flow[sink_6,sink_22] 3.2708333333333641e+01
flow[sink_7,sink_24] 3.8521817770067813e+01
flow[sink_22,sink_1] 1.6354166666666970e+01
flow[sink_24,sink_21] 2.2167651103401141e+01
flow[sink_21,sink_12] 5.8134844367344742e+00
flow[sink_7,sink_5] -3.1949292774472156e+00
flow[sink_5,sink_17] -1.9549095944114015e+01
flow[sink_17,sink_4] -1.7335687361851267e+01
flow[sink_17,sink_8] -1.8567575248929362e+01
flow[sink_3,sink_23] 16.3541666666697
flow[sink_8,sink_20] -3.4921741915596030e+01
flow[sink_25,sink_20] 8.4965762610780729e+01
flow[sink_25,sink_15] -7.9325349039935972e+01
flow[sink_15,sink_29] 0
flow[sink_29,sink_28] 1.6354166666667879e+01
flow[sink_29,sink_2] 1.1203368237326931e+02
flow[sink_2,sink_15] 9.5679515706602643e+01
flow[sink_29,innode_7] -1.4474201570660387e+02
flow[innode_4,sink_19] 4.3212656991901184e+01
flow[sink_19,innode_3] 0
flow[innode_4,innode_5] 69.0096866382632
flow[sink_27,innode_5] -69.0096866382632
flow[sink_27,sink_19] 5.2655519971596533e+01
flow[sink_10,sink_11] 3.2708333333333641e+01
flow[sink_10,innode_2] -79.514010296831
flow[sink_10,innode_3] 0
flow[innode_6,sink_25] -2.2568230365027540e+00
flow[sink_11,innode_1] 1.6354166666666970e+01
flow[sink_19,innode_2] 79.514010296831
flow[source_3,innode_4] 1.1222234363016439e+02
flow[source_2,innode_7] 1.4474201570660387e+02
flow[sink_3,innode_8] 1.7405745843330180e+02
pressure[innode_1] 7.4908250003371307e+01
pressure[innode_2] 7.9262595158780513e+01
pressure[innode_3] 7.5059951310974853e+01
pressure[innode_4] 81.01325
pressure[innode_5] 8.0965781498638151e+01
pressure[innode_6] 7.3606850723296859e+01
pressure[innode_7] 8.1013249999999985e+01
pressure[innode_8] 8.0322110945519555e+01
pressure[source_1] 81.01325
pressure[source_2] 8.1013249999999985e+01
pressure[source_3] 81.01325
pressure[sink_1] 46.0404832054992
pressure[sink_2] 7.4304028493849131e+01
pressure[sink_3] 8.0322110945519555e+01
pressure[sink_4] 5.0879628370866961e+01
pressure[sink_5] 4.8760849219646687e+01
pressure[sink_6] 4.8141560815886571e+01
pressure[sink_7] 4.7432103117540244e+01
pressure[sink_8] 5.0917718414075537e+01
pressure[sink_9] 5.5068658278519344e+01
pressure[sink_10] 7.5059951310974853e+01
pressure[sink_11] 7.4908250003371307e+01
pressure[sink_12] 1.0132499999999998e+00
pressure[sink_13] 7.3594409235046783e+01
pressure[sink_14] 7.3619637632301121e+01
pressure[sink_15] 7.3991655962492686e+01
pressure[sink_16] 7.3886600168553628e+01
pressure[sink_17] 5.0217115562559108e+01
pressure[sink_18] 5.0831713691622078e+01
pressure[sink_19] 7.9262595158780513e+01
pressure[sink_20] 5.3351272711670774e+01
pressure[sink_21] 3.0820059358327021e+00
pressure[sink_22] 4.7104252347854207e+01
pressure[sink_23] 8.0157392933859768e+01
pressure[sink_24] 3.3274920755986432e+00
pressure[sink_25] 7.3606850723296859e+01
pressure[sink_26] 6.3056098234645653e+01
pressure[sink_27] 8.0393128615730419e+01
pressure[sink_28] 7.6846685832426232e+01
pressure[sink_29] 7.7141968106043407e+01
interdiction[source_1,sink_3] 0
interdiction[innode_1,sink_16] 0
interdiction[innode_6,sink_13] 0
interdiction[sink_13,sink_14] 0
interdiction[sink_14,sink_10] 0
interdiction[sink_25,sink_26] 0
interdiction[sink_26,sink_9] 0
interdiction[sink_9,sink_18] 0
interdiction[sink_26,sink_4] 1
interdiction[sink_4,sink_20] 0
interdiction[sink_18,sink_6] 0
interdiction[sink_25,innode_8] 0
interdiction[sink_6,sink_7] 0
interdiction[sink_6,sink_22] 0
interdiction[sink_7,sink_24] 0
interdiction[sink_22,sink_1] 0
interdiction[sink_24,sink_21] 0
interdiction[sink_21,sink_12] 0
interdiction[sink_7,sink_5] 0
interdiction[sink_5,sink_17] 0
interdiction[sink_17,sink_4] 0
interdiction[sink_17,sink_8] 0
interdiction[sink_3,sink_23] 0
interdiction[sink_8,sink_20] 0
interdiction[sink_25,sink_20] 0
interdiction[sink_25,sink_15] 0
interdiction[sink_15,sink_29] 1
interdiction[sink_29,sink_28] 0
interdiction[sink_29,sink_2] 0
interdiction[sink_2,sink_15] 0
interdiction[sink_29,innode_7] 0
interdiction[innode_4,sink_19] 0
interdiction[sink_19,innode_3] 1
interdiction[innode_4,innode_5] 0
interdiction[sink_27,innode_5] 0
interdiction[sink_27,sink_19] 0
interdiction[sink_10,sink_11] 0
interdiction[sink_10,innode_2] 0
interdiction[sink_10,innode_3] 0
interdiction[innode_6,sink_25] 0
interdiction[sink_11,innode_1] 0
interdiction[sink_19,innode_2] 0
interdiction[source_3,innode_4] 0
interdiction[source_2,innode_7] 0
interdiction[sink_3,innode_8] 0
WCcheckFlow[source_1,sink_3] 39
WCcheckFlow[innode_1,sink_16] 1
WCcheckFlow[innode_6,sink_13] 13
WCcheckFlow[sink_13,sink_14] 12
WCcheckFlow[sink_14,sink_10] 11
WCcheckFlow[sink_25,sink_26] 15
WCcheckFlow[sink_26,sink_9] 14
WCcheckFlow[sink_9,sink_18] 13
WCcheckFlow[sink_26,sink_4] 0
WCcheckFlow[sink_4,sink_20] 1
WCcheckFlow[sink_18,sink_6] 12
WCcheckFlow[sink_25,innode_8] -36
WCcheckFlow[sink_6,sink_7] 9
WCcheckFlow[sink_6,sink_22] 2
WCcheckFlow[sink_7,sink_24] 3
WCcheckFlow[sink_22,sink_1] 1
WCcheckFlow[sink_24,sink_21] 2
WCcheckFlow[sink_21,sink_12] 1
WCcheckFlow[sink_7,sink_5] 5
WCcheckFlow[sink_5,sink_17] 4
WCcheckFlow[sink_17,sink_4] 2
WCcheckFlow[sink_17,sink_8] 1
WCcheckFlow[sink_3,sink_23] 1
WCcheckFlow[sink_8,sink_20] 0
WCcheckFlow[sink_25,sink_20] 0
WCcheckFlow[sink_25,sink_15] 6
WCcheckFlow[sink_15,sink_29] 0
WCcheckFlow[sink_29,sink_28] 1
WCcheckFlow[sink_29,sink_2] -4
WCcheckFlow[sink_2,sink_15] -5
WCcheckFlow[sink_29,innode_7] 2
WCcheckFlow[innode_4,sink_19] -4
WCcheckFlow[sink_19,innode_3] 0
WCcheckFlow[innode_4,innode_5] 2
WCcheckFlow[sink_27,innode_5] -1
WCcheckFlow[sink_27,sink_19] 0
WCcheckFlow[sink_10,sink_11] 3
WCcheckFlow[sink_10,innode_2] 6
WCcheckFlow[sink_10,innode_3] 1
WCcheckFlow[innode_6,sink_25] -14
WCcheckFlow[sink_11,innode_1] 2
WCcheckFlow[sink_19,innode_2] -5
WCcheckFlow[source_3,innode_4] -1
WCcheckFlow[source_2,innode_7] -1
WCcheckFlow[sink_3,innode_8] 37
